51 36
7 172
19 125
6 162
16 82
35 85
10 3
15 52
1 110
14 21
4 146
13 160
34 8
20 96
1 155
40 25
26 12
32 99
83 40
21 161
7 74
9 154
10 10
92 28
37 65
88 12
60 1
30 19
30 178
21 30
16 18
6 145
15 193
98 17
57 33
6 80
6 124
14 141
23 150
10 2
34 103
58 77
50 115
45 75
64 59
46 117
93 1
80 18
49 48
40 131
6 191
24 121
21 132
57 103
64 26
39 94
72 12
1 117
4 62
1 58
26 85
7 54
49 42
11 150
31 163
55 23
45 87
43 30
5 113
27 99
75 9
51 40
35 44
35 167
90 11
29 131
1 160
35 6
7 195
59 16
49 37
59 38
42 2
49 27
7 24
15 51
67 30
24 16
20 164
86 68
39 136
20 175
38 42
63 48
5 115
44 16
25 133
62 51
32 52
11 97
